% Instancia Pequeñas #2
% Generada el 2025-11-12 20:57:57

num_trabajadores = 9;
horizonte_dias = 5;
num_semanas = 1;
TURNOS = 1..2;

demanda = array2d(1..horizonte_dias, 1..2, [
  3, 1,
  3, 1,
  3, 1,
  3, 2,
  3, 1
]);

puntajes = array3d(1..num_trabajadores, 1..horizonte_dias, 1..2, [
  2, 0,
  2, 7,
  1, 1,
  1, 2,
  10, 6,
  7, 8,
  0, 2,
  0, 8,
  9, 2,
  9, 0,
  5, 6,
  1, 6,
  9, 9,
  7, 1,
  1, 7,
  10, 9,
  1, 9,
  0, 1,
  10, 5,
  8, 6,
  1, 5,
  6, 8,
  2, 9,
  5, 0,
  10, 9,
  7, 9,
  2, 4,
  0, 10,
  5, 9,
  1, 1,
  9, 8,
  1, 9,
  2, 10,
  8, 4,
  4, 5,
  7, 6,
  2, 2,
  4, 10,
  10, 5,
  7, 2,
  9, 6,
  8, 6,
  4, 0,
  7, 2,
  5, 10
]);
